set i := 1 2 3 4 5 6 7 8 9 10 11 12 13 14 15 ;

Location :   Cost     Profit:=
1          10         6
2          5          12
3          5          10
4          10         5
5          2          11
6          5          5
7          10         3
8          5          6
9          12         5
10         4          9
11         7          10
12         10         2
13         12         3
14         11         11
15         3          7;